830.69
0 49 24 61 22 64 42 41 43 56 23 63 0 
0 58 10 31 25 55 18 50 32 44 0 
0 38 11 65 66 59 14 19 0 
0 21 47 36 69 71 60 70 20 37 15 57 13 54 0 
0 29 5 48 74 28 62 1 73 33 0 
0 68 2 30 45 27 52 8 35 53 7 0 
0 17 40 12 72 39 9 3 16 51 6 0 
0 75 4 34 46 67 26 0 
